5,8	0,0	5,6	5,2	0,0	0,0	0,0	0,0	0,0	10,3
7,1	18,6	0,0	8,8	12,6	0,0	0,0	5,8	0,0	0,0
0,0	0,0	9,4	0,0	7,7	7,6	0,0	0,0	13,7	0,0
17,8	0,0	19,9	0,0	0,0	0,0	5,1	0,0	0,0	0,0
0,0	19,9	0,0	15,0	8,2	0,0	0,0	11,9	0,0	0,0
0,0	18,9	19,7	0,0	14,5	14,3	0,0	0,0	11,7	0,0
0,0	6,9	0,0	9,8	0,0	0,0	8,4	0,0	0,0	13,1
6,6	0,0	11,5	0,0	0,0	0,0	0,0	0,0	0,0	15,7
0,0	17,9	0,0	9,2	17,5	0,0	0,0	11,4	0,0	0,0
0,0	0,0	6,9	0,0	0,0	6,6	10,0	0,0	0,0	5,7
									
4,1	2,9	4,9	4,3	3,0	3,8	4,2	4,2	2,7	2,7
